NAME : LKH/problem_files/LocalTSPInstance2.434980.tour
COMMENT : Length = 434980
COMMENT : Found by LKH [Keld Helsgaun] Fri Jul  2 10:45:45 2021
TYPE : TOUR
DIMENSION : 148
TOUR_SECTION
1
135
134
130
129
132
131
108
107
109
110
92
91
89
93
94
90
68
70
69
67
72
71
74
73
52
51
30
49
50
45
47
48
46
25
27
26
24
29
28
9
8
4
6
7
5
2
3
22
23
43
44
65
66
87
88
103
106
104
105
119
122
120
121
118
117
102
101
82
81
84
85
86
83
62
61
64
63
60
59
38
37
40
41
42
39
20
19
18
21
16
17
14
15
35
36
57
58
79
80
99
100
115
116
127
128
133
123
125
126
124
112
114
113
111
96
98
97
95
76
78
77
75
54
56
55
53
32
34
33
31
11
10
13
12
138
137
139
140
141
142
143
144
145
146
147
148
136
-1
EOF
